NAME : amz0927.117081_117081.tour
COMMENT : Cost = 117081_117081
COMMENT : Found by LKH-AMZ [Keld Helsgaun] Sun May 11 14:42:11 2025
COMMENT : TW viol.: 0 #: 0
TYPE : TOUR
DIMENSION : 161
TOUR_SECTION
44
94
6
161
155
84
101
107
125
114
20
25
66
98
42
23
73
64
105
15
124
71
136
43
93
138
81
135
59
77
120
28
141
9
137
130
131
82
157
117
92
33
55
1
10
90
99
122
159
17
4
118
149
29
139
123
75
116
48
53
3
121
144
37
127
39
65
112
89
83
160
102
14
128
153
132
74
41
134
38
19
34
51
110
45
87
13
95
86
16
40
111
91
151
5
126
31
36
76
35
152
150
145
104
106
52
30
85
7
2
88
80
62
56
148
27
12
61
21
50
26
63
143
129
78
32
54
147
97
156
22
60
70
113
69
46
109
68
49
79
72
58
158
11
100
108
133
146
67
57
18
8
142
103
47
154
115
24
140
119
96
-1
EOF
